p cnf 330 3240
1 2 3 4 5 6 7 8 9 10 11 0
12 13 14 15 16 17 18 19 20 21 22 0
23 24 25 26 27 28 29 30 31 32 33 0
34 35 36 37 38 39 40 41 42 43 44 0
45 46 47 48 49 50 51 52 53 54 55 0
56 57 58 59 60 61 62 63 64 65 66 0
67 68 69 70 71 72 73 74 75 76 77 0
78 79 80 81 82 83 84 85 86 87 88 0
89 90 91 92 93 94 95 96 97 98 99 0
100 101 102 103 104 105 106 107 108 109 110 0
111 112 113 114 115 116 117 118 119 120 121 0
122 123 124 125 126 127 128 129 130 131 132 0
133 134 135 136 137 138 139 140 141 142 143 0
144 145 146 147 148 149 150 151 152 153 154 0
155 156 157 158 159 160 161 162 163 164 165 0
166 167 168 169 170 171 172 173 174 175 176 0
177 178 179 180 181 182 183 184 185 186 187 0
188 189 190 191 192 193 194 195 196 197 198 0
199 200 201 202 203 204 205 206 207 208 209 0
210 211 212 213 214 215 216 217 218 219 220 0
221 222 223 224 225 226 227 228 229 230 231 0
232 233 234 235 236 237 238 239 240 241 242 0
243 244 245 246 247 248 249 250 251 252 253 0
254 255 256 257 258 259 260 261 262 263 264 0
265 266 267 268 269 270 271 272 273 274 275 0
276 277 278 279 280 281 282 283 284 285 286 0
287 288 289 290 291 292 293 294 295 296 297 0
298 299 300 301 302 303 304 305 306 307 308 0
309 310 311 312 313 314 315 316 317 318 319 0
320 321 322 323 324 325 326 327 328 329 330 0
-1 -2 0
-1 -3 0
-1 -4 0
-1 -5 0
-1 -6 0
-1 -7 0
-1 -8 0
-1 -9 0
-1 -10 0
-1 -11 0
-2 -3 0
-2 -4 0
-2 -5 0
-2 -6 0
-2 -7 0
-2 -8 0
-2 -9 0
-2 -10 0
-2 -11 0
-3 -4 0
-3 -5 0
-3 -6 0
-3 -7 0
-3 -8 0
-3 -9 0
-3 -10 0
-3 -11 0
-4 -5 0
-4 -6 0
-4 -7 0
-4 -8 0
-4 -9 0
-4 -10 0
-4 -11 0
-5 -6 0
-5 -7 0
-5 -8 0
-5 -9 0
-5 -10 0
-5 -11 0
-6 -7 0
-6 -8 0
-6 -9 0
-6 -10 0
-6 -11 0
-7 -8 0
-7 -9 0
-7 -10 0
-7 -11 0
-8 -9 0
-8 -10 0
-8 -11 0
-9 -10 0
-9 -11 0
-10 -11 0
-12 -13 0
-12 -14 0
-12 -15 0
-12 -16 0
-12 -17 0
-12 -18 0
-12 -19 0
-12 -20 0
-12 -21 0
-12 -22 0
-13 -14 0
-13 -15 0
-13 -16 0
-13 -17 0
-13 -18 0
-13 -19 0
-13 -20 0
-13 -21 0
-13 -22 0
-14 -15 0
-14 -16 0
-14 -17 0
-14 -18 0
-14 -19 0
-14 -20 0
-14 -21 0
-14 -22 0
-15 -16 0
-15 -17 0
-15 -18 0
-15 -19 0
-15 -20 0
-15 -21 0
-15 -22 0
-16 -17 0
-16 -18 0
-16 -19 0
-16 -20 0
-16 -21 0
-16 -22 0
-17 -18 0
-17 -19 0
-17 -20 0
-17 -21 0
-17 -22 0
-18 -19 0
-18 -20 0
-18 -21 0
-18 -22 0
-19 -20 0
-19 -21 0
-19 -22 0
-20 -21 0
-20 -22 0
-21 -22 0
-23 -24 0
-23 -25 0
-23 -26 0
-23 -27 0
-23 -28 0
-23 -29 0
-23 -30 0
-23 -31 0
-23 -32 0
-23 -33 0
-24 -25 0
-24 -26 0
-24 -27 0
-24 -28 0
-24 -29 0
-24 -30 0
-24 -31 0
-24 -32 0
-24 -33 0
-25 -26 0
-25 -27 0
-25 -28 0
-25 -29 0
-25 -30 0
-25 -31 0
-25 -32 0
-25 -33 0
-26 -27 0
-26 -28 0
-26 -29 0
-26 -30 0
-26 -31 0
-26 -32 0
-26 -33 0
-27 -28 0
-27 -29 0
-27 -30 0
-27 -31 0
-27 -32 0
-27 -33 0
-28 -29 0
-28 -30 0
-28 -31 0
-28 -32 0
-28 -33 0
-29 -30 0
-29 -31 0
-29 -32 0
-29 -33 0
-30 -31 0
-30 -32 0
-30 -33 0
-31 -32 0
-31 -33 0
-32 -33 0
-34 -35 0
-34 -36 0
-34 -37 0
-34 -38 0
-34 -39 0
-34 -40 0
-34 -41 0
-34 -42 0
-34 -43 0
-34 -44 0
-35 -36 0
-35 -37 0
-35 -38 0
-35 -39 0
-35 -40 0
-35 -41 0
-35 -42 0
-35 -43 0
-35 -44 0
-36 -37 0
-36 -38 0
-36 -39 0
-36 -40 0
-36 -41 0
-36 -42 0
-36 -43 0
-36 -44 0
-37 -38 0
-37 -39 0
-37 -40 0
-37 -41 0
-37 -42 0
-37 -43 0
-37 -44 0
-38 -39 0
-38 -40 0
-38 -41 0
-38 -42 0
-38 -43 0
-38 -44 0
-39 -40 0
-39 -41 0
-39 -42 0
-39 -43 0
-39 -44 0
-40 -41 0
-40 -42 0
-40 -43 0
-40 -44 0
-41 -42 0
-41 -43 0
-41 -44 0
-42 -43 0
-42 -44 0
-43 -44 0
-45 -46 0
-45 -47 0
-45 -48 0
-45 -49 0
-45 -50 0
-45 -51 0
-45 -52 0
-45 -53 0
-45 -54 0
-45 -55 0
-46 -47 0
-46 -48 0
-46 -49 0
-46 -50 0
-46 -51 0
-46 -52 0
-46 -53 0
-46 -54 0
-46 -55 0
-47 -48 0
-47 -49 0
-47 -50 0
-47 -51 0
-47 -52 0
-47 -53 0
-47 -54 0
-47 -55 0
-48 -49 0
-48 -50 0
-48 -51 0
-48 -52 0
-48 -53 0
-48 -54 0
-48 -55 0
-49 -50 0
-49 -51 0
-49 -52 0
-49 -53 0
-49 -54 0
-49 -55 0
-50 -51 0
-50 -52 0
-50 -53 0
-50 -54 0
-50 -55 0
-51 -52 0
-51 -53 0
-51 -54 0
-51 -55 0
-52 -53 0
-52 -54 0
-52 -55 0
-53 -54 0
-53 -55 0
-54 -55 0
-56 -57 0
-56 -58 0
-56 -59 0
-56 -60 0
-56 -61 0
-56 -62 0
-56 -63 0
-56 -64 0
-56 -65 0
-56 -66 0
-57 -58 0
-57 -59 0
-57 -60 0
-57 -61 0
-57 -62 0
-57 -63 0
-57 -64 0
-57 -65 0
-57 -66 0
-58 -59 0
-58 -60 0
-58 -61 0
-58 -62 0
-58 -63 0
-58 -64 0
-58 -65 0
-58 -66 0
-59 -60 0
-59 -61 0
-59 -62 0
-59 -63 0
-59 -64 0
-59 -65 0
-59 -66 0
-60 -61 0
-60 -62 0
-60 -63 0
-60 -64 0
-60 -65 0
-60 -66 0
-61 -62 0
-61 -63 0
-61 -64 0
-61 -65 0
-61 -66 0
-62 -63 0
-62 -64 0
-62 -65 0
-62 -66 0
-63 -64 0
-63 -65 0
-63 -66 0
-64 -65 0
-64 -66 0
-65 -66 0
-67 -68 0
-67 -69 0
-67 -70 0
-67 -71 0
-67 -72 0
-67 -73 0
-67 -74 0
-67 -75 0
-67 -76 0
-67 -77 0
-68 -69 0
-68 -70 0
-68 -71 0
-68 -72 0
-68 -73 0
-68 -74 0
-68 -75 0
-68 -76 0
-68 -77 0
-69 -70 0
-69 -71 0
-69 -72 0
-69 -73 0
-69 -74 0
-69 -75 0
-69 -76 0
-69 -77 0
-70 -71 0
-70 -72 0
-70 -73 0
-70 -74 0
-70 -75 0
-70 -76 0
-70 -77 0
-71 -72 0
-71 -73 0
-71 -74 0
-71 -75 0
-71 -76 0
-71 -77 0
-72 -73 0
-72 -74 0
-72 -75 0
-72 -76 0
-72 -77 0
-73 -74 0
-73 -75 0
-73 -76 0
-73 -77 0
-74 -75 0
-74 -76 0
-74 -77 0
-75 -76 0
-75 -77 0
-76 -77 0
-78 -79 0
-78 -80 0
-78 -81 0
-78 -82 0
-78 -83 0
-78 -84 0
-78 -85 0
-78 -86 0
-78 -87 0
-78 -88 0
-79 -80 0
-79 -81 0
-79 -82 0
-79 -83 0
-79 -84 0
-79 -85 0
-79 -86 0
-79 -87 0
-79 -88 0
-80 -81 0
-80 -82 0
-80 -83 0
-80 -84 0
-80 -85 0
-80 -86 0
-80 -87 0
-80 -88 0
-81 -82 0
-81 -83 0
-81 -84 0
-81 -85 0
-81 -86 0
-81 -87 0
-81 -88 0
-82 -83 0
-82 -84 0
-82 -85 0
-82 -86 0
-82 -87 0
-82 -88 0
-83 -84 0
-83 -85 0
-83 -86 0
-83 -87 0
-83 -88 0
-84 -85 0
-84 -86 0
-84 -87 0
-84 -88 0
-85 -86 0
-85 -87 0
-85 -88 0
-86 -87 0
-86 -88 0
-87 -88 0
-89 -90 0
-89 -91 0
-89 -92 0
-89 -93 0
-89 -94 0
-89 -95 0
-89 -96 0
-89 -97 0
-89 -98 0
-89 -99 0
-90 -91 0
-90 -92 0
-90 -93 0
-90 -94 0
-90 -95 0
-90 -96 0
-90 -97 0
-90 -98 0
-90 -99 0
-91 -92 0
-91 -93 0
-91 -94 0
-91 -95 0
-91 -96 0
-91 -97 0
-91 -98 0
-91 -99 0
-92 -93 0
-92 -94 0
-92 -95 0
-92 -96 0
-92 -97 0
-92 -98 0
-92 -99 0
-93 -94 0
-93 -95 0
-93 -96 0
-93 -97 0
-93 -98 0
-93 -99 0
-94 -95 0
-94 -96 0
-94 -97 0
-94 -98 0
-94 -99 0
-95 -96 0
-95 -97 0
-95 -98 0
-95 -99 0
-96 -97 0
-96 -98 0
-96 -99 0
-97 -98 0
-97 -99 0
-98 -99 0
-100 -101 0
-100 -102 0
-100 -103 0
-100 -104 0
-100 -105 0
-100 -106 0
-100 -107 0
-100 -108 0
-100 -109 0
-100 -110 0
-101 -102 0
-101 -103 0
-101 -104 0
-101 -105 0
-101 -106 0
-101 -107 0
-101 -108 0
-101 -109 0
-101 -110 0
-102 -103 0
-102 -104 0
-102 -105 0
-102 -106 0
-102 -107 0
-102 -108 0
-102 -109 0
-102 -110 0
-103 -104 0
-103 -105 0
-103 -106 0
-103 -107 0
-103 -108 0
-103 -109 0
-103 -110 0
-104 -105 0
-104 -106 0
-104 -107 0
-104 -108 0
-104 -109 0
-104 -110 0
-105 -106 0
-105 -107 0
-105 -108 0
-105 -109 0
-105 -110 0
-106 -107 0
-106 -108 0
-106 -109 0
-106 -110 0
-107 -108 0
-107 -109 0
-107 -110 0
-108 -109 0
-108 -110 0
-109 -110 0
-111 -112 0
-111 -113 0
-111 -114 0
-111 -115 0
-111 -116 0
-111 -117 0
-111 -118 0
-111 -119 0
-111 -120 0
-111 -121 0
-112 -113 0
-112 -114 0
-112 -115 0
-112 -116 0
-112 -117 0
-112 -118 0
-112 -119 0
-112 -120 0
-112 -121 0
-113 -114 0
-113 -115 0
-113 -116 0
-113 -117 0
-113 -118 0
-113 -119 0
-113 -120 0
-113 -121 0
-114 -115 0
-114 -116 0
-114 -117 0
-114 -118 0
-114 -119 0
-114 -120 0
-114 -121 0
-115 -116 0
-115 -117 0
-115 -118 0
-115 -119 0
-115 -120 0
-115 -121 0
-116 -117 0
-116 -118 0
-116 -119 0
-116 -120 0
-116 -121 0
-117 -118 0
-117 -119 0
-117 -120 0
-117 -121 0
-118 -119 0
-118 -120 0
-118 -121 0
-119 -120 0
-119 -121 0
-120 -121 0
-122 -123 0
-122 -124 0
-122 -125 0
-122 -126 0
-122 -127 0
-122 -128 0
-122 -129 0
-122 -130 0
-122 -131 0
-122 -132 0
-123 -124 0
-123 -125 0
-123 -126 0
-123 -127 0
-123 -128 0
-123 -129 0
-123 -130 0
-123 -131 0
-123 -132 0
-124 -125 0
-124 -126 0
-124 -127 0
-124 -128 0
-124 -129 0
-124 -130 0
-124 -131 0
-124 -132 0
-125 -126 0
-125 -127 0
-125 -128 0
-125 -129 0
-125 -130 0
-125 -131 0
-125 -132 0
-126 -127 0
-126 -128 0
-126 -129 0
-126 -130 0
-126 -131 0
-126 -132 0
-127 -128 0
-127 -129 0
-127 -130 0
-127 -131 0
-127 -132 0
-128 -129 0
-128 -130 0
-128 -131 0
-128 -132 0
-129 -130 0
-129 -131 0
-129 -132 0
-130 -131 0
-130 -132 0
-131 -132 0
-133 -134 0
-133 -135 0
-133 -136 0
-133 -137 0
-133 -138 0
-133 -139 0
-133 -140 0
-133 -141 0
-133 -142 0
-133 -143 0
-134 -135 0
-134 -136 0
-134 -137 0
-134 -138 0
-134 -139 0
-134 -140 0
-134 -141 0
-134 -142 0
-134 -143 0
-135 -136 0
-135 -137 0
-135 -138 0
-135 -139 0
-135 -140 0
-135 -141 0
-135 -142 0
-135 -143 0
-136 -137 0
-136 -138 0
-136 -139 0
-136 -140 0
-136 -141 0
-136 -142 0
-136 -143 0
-137 -138 0
-137 -139 0
-137 -140 0
-137 -141 0
-137 -142 0
-137 -143 0
-138 -139 0
-138 -140 0
-138 -141 0
-138 -142 0
-138 -143 0
-139 -140 0
-139 -141 0
-139 -142 0
-139 -143 0
-140 -141 0
-140 -142 0
-140 -143 0
-141 -142 0
-141 -143 0
-142 -143 0
-144 -145 0
-144 -146 0
-144 -147 0
-144 -148 0
-144 -149 0
-144 -150 0
-144 -151 0
-144 -152 0
-144 -153 0
-144 -154 0
-145 -146 0
-145 -147 0
-145 -148 0
-145 -149 0
-145 -150 0
-145 -151 0
-145 -152 0
-145 -153 0
-145 -154 0
-146 -147 0
-146 -148 0
-146 -149 0
-146 -150 0
-146 -151 0
-146 -152 0
-146 -153 0
-146 -154 0
-147 -148 0
-147 -149 0
-147 -150 0
-147 -151 0
-147 -152 0
-147 -153 0
-147 -154 0
-148 -149 0
-148 -150 0
-148 -151 0
-148 -152 0
-148 -153 0
-148 -154 0
-149 -150 0
-149 -151 0
-149 -152 0
-149 -153 0
-149 -154 0
-150 -151 0
-150 -152 0
-150 -153 0
-150 -154 0
-151 -152 0
-151 -153 0
-151 -154 0
-152 -153 0
-152 -154 0
-153 -154 0
-155 -156 0
-155 -157 0
-155 -158 0
-155 -159 0
-155 -160 0
-155 -161 0
-155 -162 0
-155 -163 0
-155 -164 0
-155 -165 0
-156 -157 0
-156 -158 0
-156 -159 0
-156 -160 0
-156 -161 0
-156 -162 0
-156 -163 0
-156 -164 0
-156 -165 0
-157 -158 0
-157 -159 0
-157 -160 0
-157 -161 0
-157 -162 0
-157 -163 0
-157 -164 0
-157 -165 0
-158 -159 0
-158 -160 0
-158 -161 0
-158 -162 0
-158 -163 0
-158 -164 0
-158 -165 0
-159 -160 0
-159 -161 0
-159 -162 0
-159 -163 0
-159 -164 0
-159 -165 0
-160 -161 0
-160 -162 0
-160 -163 0
-160 -164 0
-160 -165 0
-161 -162 0
-161 -163 0
-161 -164 0
-161 -165 0
-162 -163 0
-162 -164 0
-162 -165 0
-163 -164 0
-163 -165 0
-164 -165 0
-166 -167 0
-166 -168 0
-166 -169 0
-166 -170 0
-166 -171 0
-166 -172 0
-166 -173 0
-166 -174 0
-166 -175 0
-166 -176 0
-167 -168 0
-167 -169 0
-167 -170 0
-167 -171 0
-167 -172 0
-167 -173 0
-167 -174 0
-167 -175 0
-167 -176 0
-168 -169 0
-168 -170 0
-168 -171 0
-168 -172 0
-168 -173 0
-168 -174 0
-168 -175 0
-168 -176 0
-169 -170 0
-169 -171 0
-169 -172 0
-169 -173 0
-169 -174 0
-169 -175 0
-169 -176 0
-170 -171 0
-170 -172 0
-170 -173 0
-170 -174 0
-170 -175 0
-170 -176 0
-171 -172 0
-171 -173 0
-171 -174 0
-171 -175 0
-171 -176 0
-172 -173 0
-172 -174 0
-172 -175 0
-172 -176 0
-173 -174 0
-173 -175 0
-173 -176 0
-174 -175 0
-174 -176 0
-175 -176 0
-177 -178 0
-177 -179 0
-177 -180 0
-177 -181 0
-177 -182 0
-177 -183 0
-177 -184 0
-177 -185 0
-177 -186 0
-177 -187 0
-178 -179 0
-178 -180 0
-178 -181 0
-178 -182 0
-178 -183 0
-178 -184 0
-178 -185 0
-178 -186 0
-178 -187 0
-179 -180 0
-179 -181 0
-179 -182 0
-179 -183 0
-179 -184 0
-179 -185 0
-179 -186 0
-179 -187 0
-180 -181 0
-180 -182 0
-180 -183 0
-180 -184 0
-180 -185 0
-180 -186 0
-180 -187 0
-181 -182 0
-181 -183 0
-181 -184 0
-181 -185 0
-181 -186 0
-181 -187 0
-182 -183 0
-182 -184 0
-182 -185 0
-182 -186 0
-182 -187 0
-183 -184 0
-183 -185 0
-183 -186 0
-183 -187 0
-184 -185 0
-184 -186 0
-184 -187 0
-185 -186 0
-185 -187 0
-186 -187 0
-188 -189 0
-188 -190 0
-188 -191 0
-188 -192 0
-188 -193 0
-188 -194 0
-188 -195 0
-188 -196 0
-188 -197 0
-188 -198 0
-189 -190 0
-189 -191 0
-189 -192 0
-189 -193 0
-189 -194 0
-189 -195 0
-189 -196 0
-189 -197 0
-189 -198 0
-190 -191 0
-190 -192 0
-190 -193 0
-190 -194 0
-190 -195 0
-190 -196 0
-190 -197 0
-190 -198 0
-191 -192 0
-191 -193 0
-191 -194 0
-191 -195 0
-191 -196 0
-191 -197 0
-191 -198 0
-192 -193 0
-192 -194 0
-192 -195 0
-192 -196 0
-192 -197 0
-192 -198 0
-193 -194 0
-193 -195 0
-193 -196 0
-193 -197 0
-193 -198 0
-194 -195 0
-194 -196 0
-194 -197 0
-194 -198 0
-195 -196 0
-195 -197 0
-195 -198 0
-196 -197 0
-196 -198 0
-197 -198 0
-199 -200 0
-199 -201 0
-199 -202 0
-199 -203 0
-199 -204 0
-199 -205 0
-199 -206 0
-199 -207 0
-199 -208 0
-199 -209 0
-200 -201 0
-200 -202 0
-200 -203 0
-200 -204 0
-200 -205 0
-200 -206 0
-200 -207 0
-200 -208 0
-200 -209 0
-201 -202 0
-201 -203 0
-201 -204 0
-201 -205 0
-201 -206 0
-201 -207 0
-201 -208 0
-201 -209 0
-202 -203 0
-202 -204 0
-202 -205 0
-202 -206 0
-202 -207 0
-202 -208 0
-202 -209 0
-203 -204 0
-203 -205 0
-203 -206 0
-203 -207 0
-203 -208 0
-203 -209 0
-204 -205 0
-204 -206 0
-204 -207 0
-204 -208 0
-204 -209 0
-205 -206 0
-205 -207 0
-205 -208 0
-205 -209 0
-206 -207 0
-206 -208 0
-206 -209 0
-207 -208 0
-207 -209 0
-208 -209 0
-210 -211 0
-210 -212 0
-210 -213 0
-210 -214 0
-210 -215 0
-210 -216 0
-210 -217 0
-210 -218 0
-210 -219 0
-210 -220 0
-211 -212 0
-211 -213 0
-211 -214 0
-211 -215 0
-211 -216 0
-211 -217 0
-211 -218 0
-211 -219 0
-211 -220 0
-212 -213 0
-212 -214 0
-212 -215 0
-212 -216 0
-212 -217 0
-212 -218 0
-212 -219 0
-212 -220 0
-213 -214 0
-213 -215 0
-213 -216 0
-213 -217 0
-213 -218 0
-213 -219 0
-213 -220 0
-214 -215 0
-214 -216 0
-214 -217 0
-214 -218 0
-214 -219 0
-214 -220 0
-215 -216 0
-215 -217 0
-215 -218 0
-215 -219 0
-215 -220 0
-216 -217 0
-216 -218 0
-216 -219 0
-216 -220 0
-217 -218 0
-217 -219 0
-217 -220 0
-218 -219 0
-218 -220 0
-219 -220 0
-221 -222 0
-221 -223 0
-221 -224 0
-221 -225 0
-221 -226 0
-221 -227 0
-221 -228 0
-221 -229 0
-221 -230 0
-221 -231 0
-222 -223 0
-222 -224 0
-222 -225 0
-222 -226 0
-222 -227 0
-222 -228 0
-222 -229 0
-222 -230 0
-222 -231 0
-223 -224 0
-223 -225 0
-223 -226 0
-223 -227 0
-223 -228 0
-223 -229 0
-223 -230 0
-223 -231 0
-224 -225 0
-224 -226 0
-224 -227 0
-224 -228 0
-224 -229 0
-224 -230 0
-224 -231 0
-225 -226 0
-225 -227 0
-225 -228 0
-225 -229 0
-225 -230 0
-225 -231 0
-226 -227 0
-226 -228 0
-226 -229 0
-226 -230 0
-226 -231 0
-227 -228 0
-227 -229 0
-227 -230 0
-227 -231 0
-228 -229 0
-228 -230 0
-228 -231 0
-229 -230 0
-229 -231 0
-230 -231 0
-232 -233 0
-232 -234 0
-232 -235 0
-232 -236 0
-232 -237 0
-232 -238 0
-232 -239 0
-232 -240 0
-232 -241 0
-232 -242 0
-233 -234 0
-233 -235 0
-233 -236 0
-233 -237 0
-233 -238 0
-233 -239 0
-233 -240 0
-233 -241 0
-233 -242 0
-234 -235 0
-234 -236 0
-234 -237 0
-234 -238 0
-234 -239 0
-234 -240 0
-234 -241 0
-234 -242 0
-235 -236 0
-235 -237 0
-235 -238 0
-235 -239 0
-235 -240 0
-235 -241 0
-235 -242 0
-236 -237 0
-236 -238 0
-236 -239 0
-236 -240 0
-236 -241 0
-236 -242 0
-237 -238 0
-237 -239 0
-237 -240 0
-237 -241 0
-237 -242 0
-238 -239 0
-238 -240 0
-238 -241 0
-238 -242 0
-239 -240 0
-239 -241 0
-239 -242 0
-240 -241 0
-240 -242 0
-241 -242 0
-243 -244 0
-243 -245 0
-243 -246 0
-243 -247 0
-243 -248 0
-243 -249 0
-243 -250 0
-243 -251 0
-243 -252 0
-243 -253 0
-244 -245 0
-244 -246 0
-244 -247 0
-244 -248 0
-244 -249 0
-244 -250 0
-244 -251 0
-244 -252 0
-244 -253 0
-245 -246 0
-245 -247 0
-245 -248 0
-245 -249 0
-245 -250 0
-245 -251 0
-245 -252 0
-245 -253 0
-246 -247 0
-246 -248 0
-246 -249 0
-246 -250 0
-246 -251 0
-246 -252 0
-246 -253 0
-247 -248 0
-247 -249 0
-247 -250 0
-247 -251 0
-247 -252 0
-247 -253 0
-248 -249 0
-248 -250 0
-248 -251 0
-248 -252 0
-248 -253 0
-249 -250 0
-249 -251 0
-249 -252 0
-249 -253 0
-250 -251 0
-250 -252 0
-250 -253 0
-251 -252 0
-251 -253 0
-252 -253 0
-254 -255 0
-254 -256 0
-254 -257 0
-254 -258 0
-254 -259 0
-254 -260 0
-254 -261 0
-254 -262 0
-254 -263 0
-254 -264 0
-255 -256 0
-255 -257 0
-255 -258 0
-255 -259 0
-255 -260 0
-255 -261 0
-255 -262 0
-255 -263 0
-255 -264 0
-256 -257 0
-256 -258 0
-256 -259 0
-256 -260 0
-256 -261 0
-256 -262 0
-256 -263 0
-256 -264 0
-257 -258 0
-257 -259 0
-257 -260 0
-257 -261 0
-257 -262 0
-257 -263 0
-257 -264 0
-258 -259 0
-258 -260 0
-258 -261 0
-258 -262 0
-258 -263 0
-258 -264 0
-259 -260 0
-259 -261 0
-259 -262 0
-259 -263 0
-259 -264 0
-260 -261 0
-260 -262 0
-260 -263 0
-260 -264 0
-261 -262 0
-261 -263 0
-261 -264 0
-262 -263 0
-262 -264 0
-263 -264 0
-265 -266 0
-265 -267 0
-265 -268 0
-265 -269 0
-265 -270 0
-265 -271 0
-265 -272 0
-265 -273 0
-265 -274 0
-265 -275 0
-266 -267 0
-266 -268 0
-266 -269 0
-266 -270 0
-266 -271 0
-266 -272 0
-266 -273 0
-266 -274 0
-266 -275 0
-267 -268 0
-267 -269 0
-267 -270 0
-267 -271 0
-267 -272 0
-267 -273 0
-267 -274 0
-267 -275 0
-268 -269 0
-268 -270 0
-268 -271 0
-268 -272 0
-268 -273 0
-268 -274 0
-268 -275 0
-269 -270 0
-269 -271 0
-269 -272 0
-269 -273 0
-269 -274 0
-269 -275 0
-270 -271 0
-270 -272 0
-270 -273 0
-270 -274 0
-270 -275 0
-271 -272 0
-271 -273 0
-271 -274 0
-271 -275 0
-272 -273 0
-272 -274 0
-272 -275 0
-273 -274 0
-273 -275 0
-274 -275 0
-276 -277 0
-276 -278 0
-276 -279 0
-276 -280 0
-276 -281 0
-276 -282 0
-276 -283 0
-276 -284 0
-276 -285 0
-276 -286 0
-277 -278 0
-277 -279 0
-277 -280 0
-277 -281 0
-277 -282 0
-277 -283 0
-277 -284 0
-277 -285 0
-277 -286 0
-278 -279 0
-278 -280 0
-278 -281 0
-278 -282 0
-278 -283 0
-278 -284 0
-278 -285 0
-278 -286 0
-279 -280 0
-279 -281 0
-279 -282 0
-279 -283 0
-279 -284 0
-279 -285 0
-279 -286 0
-280 -281 0
-280 -282 0
-280 -283 0
-280 -284 0
-280 -285 0
-280 -286 0
-281 -282 0
-281 -283 0
-281 -284 0
-281 -285 0
-281 -286 0
-282 -283 0
-282 -284 0
-282 -285 0
-282 -286 0
-283 -284 0
-283 -285 0
-283 -286 0
-284 -285 0
-284 -286 0
-285 -286 0
-287 -288 0
-287 -289 0
-287 -290 0
-287 -291 0
-287 -292 0
-287 -293 0
-287 -294 0
-287 -295 0
-287 -296 0
-287 -297 0
-288 -289 0
-288 -290 0
-288 -291 0
-288 -292 0
-288 -293 0
-288 -294 0
-288 -295 0
-288 -296 0
-288 -297 0
-289 -290 0
-289 -291 0
-289 -292 0
-289 -293 0
-289 -294 0
-289 -295 0
-289 -296 0
-289 -297 0
-290 -291 0
-290 -292 0
-290 -293 0
-290 -294 0
-290 -295 0
-290 -296 0
-290 -297 0
-291 -292 0
-291 -293 0
-291 -294 0
-291 -295 0
-291 -296 0
-291 -297 0
-292 -293 0
-292 -294 0
-292 -295 0
-292 -296 0
-292 -297 0
-293 -294 0
-293 -295 0
-293 -296 0
-293 -297 0
-294 -295 0
-294 -296 0
-294 -297 0
-295 -296 0
-295 -297 0
-296 -297 0
-298 -299 0
-298 -300 0
-298 -301 0
-298 -302 0
-298 -303 0
-298 -304 0
-298 -305 0
-298 -306 0
-298 -307 0
-298 -308 0
-299 -300 0
-299 -301 0
-299 -302 0
-299 -303 0
-299 -304 0
-299 -305 0
-299 -306 0
-299 -307 0
-299 -308 0
-300 -301 0
-300 -302 0
-300 -303 0
-300 -304 0
-300 -305 0
-300 -306 0
-300 -307 0
-300 -308 0
-301 -302 0
-301 -303 0
-301 -304 0
-301 -305 0
-301 -306 0
-301 -307 0
-301 -308 0
-302 -303 0
-302 -304 0
-302 -305 0
-302 -306 0
-302 -307 0
-302 -308 0
-303 -304 0
-303 -305 0
-303 -306 0
-303 -307 0
-303 -308 0
-304 -305 0
-304 -306 0
-304 -307 0
-304 -308 0
-305 -306 0
-305 -307 0
-305 -308 0
-306 -307 0
-306 -308 0
-307 -308 0
-309 -310 0
-309 -311 0
-309 -312 0
-309 -313 0
-309 -314 0
-309 -315 0
-309 -316 0
-309 -317 0
-309 -318 0
-309 -319 0
-310 -311 0
-310 -312 0
-310 -313 0
-310 -314 0
-310 -315 0
-310 -316 0
-310 -317 0
-310 -318 0
-310 -319 0
-311 -312 0
-311 -313 0
-311 -314 0
-311 -315 0
-311 -316 0
-311 -317 0
-311 -318 0
-311 -319 0
-312 -313 0
-312 -314 0
-312 -315 0
-312 -316 0
-312 -317 0
-312 -318 0
-312 -319 0
-313 -314 0
-313 -315 0
-313 -316 0
-313 -317 0
-313 -318 0
-313 -319 0
-314 -315 0
-314 -316 0
-314 -317 0
-314 -318 0
-314 -319 0
-315 -316 0
-315 -317 0
-315 -318 0
-315 -319 0
-316 -317 0
-316 -318 0
-316 -319 0
-317 -318 0
-317 -319 0
-318 -319 0
-320 -321 0
-320 -322 0
-320 -323 0
-320 -324 0
-320 -325 0
-320 -326 0
-320 -327 0
-320 -328 0
-320 -329 0
-320 -330 0
-321 -322 0
-321 -323 0
-321 -324 0
-321 -325 0
-321 -326 0
-321 -327 0
-321 -328 0
-321 -329 0
-321 -330 0
-322 -323 0
-322 -324 0
-322 -325 0
-322 -326 0
-322 -327 0
-322 -328 0
-322 -329 0
-322 -330 0
-323 -324 0
-323 -325 0
-323 -326 0
-323 -327 0
-323 -328 0
-323 -329 0
-323 -330 0
-324 -325 0
-324 -326 0
-324 -327 0
-324 -328 0
-324 -329 0
-324 -330 0
-325 -326 0
-325 -327 0
-325 -328 0
-325 -329 0
-325 -330 0
-326 -327 0
-326 -328 0
-326 -329 0
-326 -330 0
-327 -328 0
-327 -329 0
-327 -330 0
-328 -329 0
-328 -330 0
-329 -330 0
-6 -25 0
-3 -25 0
-10 -29 0
-11 -32 0
-1 -31 0
-11 -25 0
-6 -27 0
-6 -28 0
-10 -32 0
-2 -23 0
-11 -24 0
-8 -33 0
-9 -42 0
-9 -44 0
-11 -35 0
-2 -42 0
-8 -34 0
-2 -44 0
-2 -37 0
-4 -39 0
-9 -40 0
-3 -41 0
-2 -36 0
-8 -44 0
-9 -151 0
-11 -149 0
-9 -153 0
-7 -145 0
-4 -150 0
-11 -151 0
-4 -153 0
-5 -152 0
-8 -151 0
-10 -146 0
-9 -146 0
-2 -146 0
-11 -159 0
-9 -156 0
-7 -162 0
-11 -156 0
-3 -164 0
-8 -155 0
-4 -158 0
-10 -164 0
-5 -161 0
-11 -160 0
-4 -156 0
-11 -157 0
-11 -206 0
-5 -208 0
-4 -206 0
-11 -208 0
-1 -206 0
-6 -206 0
-4 -202 0
-10 -209 0
-10 -199 0
-1 -199 0
-7 -200 0
-2 -204 0
-1 -215 0
-6 -212 0
-10 -220 0
-11 -214 0
-10 -212 0
-6 -217 0
-8 -213 0
-9 -220 0
-2 -220 0
-9 -214 0
-5 -213 0
-1 -212 0
-21 -37 0
-14 -38 0
-14 -37 0
-13 -34 0
-13 -40 0
-18 -39 0
-17 -36 0
-21 -35 0
-12 -39 0
-15 -39 0
-14 -41 0
-20 -36 0
-19 -86 0
-12 -84 0
-20 -82 0
-16 -82 0
-15 -81 0
-22 -84 0
-17 -85 0
-18 -81 0
-21 -88 0
-15 -85 0
-19 -82 0
-15 -86 0
-21 -238 0
-12 -236 0
-18 -236 0
-22 -236 0
-15 -241 0
-16 -238 0
-13 -238 0
-12 -239 0
-13 -233 0
-15 -240 0
-14 -235 0
-14 -232 0
-13 -272 0
-20 -271 0
-15 -267 0
-14 -274 0
-16 -270 0
-19 -271 0
-19 -273 0
-12 -275 0
-18 -266 0
-22 -272 0
-17 -265 0
-18 -271 0
-17 -305 0
-12 -302 0
-20 -302 0
-22 -303 0
-21 -300 0
-13 -299 0
-12 -298 0
-22 -302 0
-21 -299 0
-20 -307 0
-12 -299 0
-15 -303 0
-16 -312 0
-22 -314 0
-19 -313 0
-15 -312 0
-21 -318 0
-15 -316 0
-14 -309 0
-22 -319 0
-19 -314 0
-20 -319 0
-18 -310 0
-12 -311 0
-25 -54 0
-33 -53 0
-29 -45 0
-28 -48 0
-32 -55 0
-24 -46 0
-29 -47 0
-25 -45 0
-29 -49 0
-27 -47 0
-31 -53 0
-29 -52 0
-29 -80 0
-23 -88 0
-24 -86 0
-25 -81 0
-31 -81 0
-32 -82 0
-31 -86 0
-28 -85 0
-23 -83 0
-29 -79 0
-30 -79 0
-24 -80 0
-31 -98 0
-33 -99 0
-27 -93 0
-27 -98 0
-31 -94 0
-30 -95 0
-33 -91 0
-33 -95 0
-30 -91 0
-30 -89 0
-24 -90 0
-31 -97 0
-24 -115 0
-26 -112 0
-29 -116 0
-31 -118 0
-30 -111 0
-23 -114 0
-24 -119 0
-30 -116 0
-33 -111 0
-24 -121 0
-27 -116 0
-29 -112 0
-32 -149 0
-30 -151 0
-30 -152 0
-26 -153 0
-32 -146 0
-33 -147 0
-28 -154 0
-23 -150 0
-27 -154 0
-25 -147 0
-29 -154 0
-26 -145 0
-29 -269 0
-28 -270 0
-29 -272 0
-29 -268 0
-30 -268 0
-24 -275 0
-23 -274 0
-32 -273 0
-30 -267 0
-31 -269 0
-33 -267 0
-26 -272 0
-30 -289 0
-29 -297 0
-29 -294 0
-29 -289 0
-25 -288 0
-30 -294 0
-23 -287 0
-32 -295 0
-27 -297 0
-23 -295 0
-32 -289 0
-24 -297 0
-40 -103 0
-40 -108 0
-39 -108 0
-38 -110 0
-43 -102 0
-41 -106 0
-35 -105 0
-43 -100 0
-44 -104 0
-37 -110 0
-34 -109 0
-37 -102 0
-40 -146 0
-34 -147 0
-43 -149 0
-39 -154 0
-40 -150 0
-44 -147 0
-40 -148 0
-41 -153 0
-42 -151 0
-41 -149 0
-38 -147 0
-34 -146 0
-44 -194 0
-40 -189 0
-44 -195 0
-35 -191 0
-37 -191 0
-35 -197 0
-36 -198 0
-36 -197 0
-37 -194 0
-43 -195 0
-43 -197 0
-44 -191 0
-36 -260 0
-44 -260 0
-36 -264 0
-35 -259 0
-34 -259 0
-37 -263 0
-37 -264 0
-38 -260 0
-34 -255 0
-38 -262 0
-39 -255 0
-38 -255 0
-38 -283 0
-44 -277 0
-34 -281 0
-42 -276 0
-34 -282 0
-36 -278 0
-38 -286 0
-37 -283 0
-39 -282 0
-36 -286 0
-43 -283 0
-35 -284 0
-55 -73 0
-47 -75 0
-45 -71 0
-55 -75 0
-49 -77 0
-49 -75 0
-51 -68 0
-54 -67 0
-50 -67 0
-52 -74 0
-48 -77 0
-54 -72 0
-54 -110 0
-49 -106 0
-55 -108 0
-54 -109 0
-45 -108 0
-52 -102 0
-51 -107 0
-49 -100 0
-48 -107 0
-46 -100 0
-52 -105 0
-52 -110 0
-50 -188 0
-51 -195 0
-49 -192 0
-50 -190 0
-55 -192 0
-48 -188 0
-53 -191 0
-51 -190 0
-51 -194 0
-52 -190 0
-51 -197 0
-49 -193 0
-53 -263 0
-55 -261 0
-54 -260 0
-48 -264 0
-52 -259 0
-52 -263 0
-48 -255 0
-50 -256 0
-48 -256 0
-46 -259 0
-51 -254 0
-55 -263 0
-64 -72 0
-66 -71 0
-66 -69 0
-57 -72 0
-62 -67 0
-66 -73 0
-58 -77 0
-58 -70 0
-59 -67 0
-61 -67 0
-61 -68 0
-61 -69 0
-63 -134 0
-57 -136 0
-60 -134 0
-59 -137 0
-59 -139 0
-66 -135 0
-62 -137 0
-66 -133 0
-62 -135 0
-56 -140 0
-61 -139 0
-57 -143 0
-57 -150 0
-64 -150 0
-57 -152 0
-63 -151 0
-60 -151 0
-56 -149 0
-60 -152 0
-57 -148 0
-63 -152 0
-57 -154 0
-66 -144 0
-57 -144 0
-57 -172 0
-65 -171 0
-65 -167 0
-62 -172 0
-61 -174 0
-65 -175 0
-63 -171 0
-65 -170 0
-56 -169 0
-58 -175 0
-62 -169 0
-66 -171 0
-59 -205 0
-59 -209 0
-65 -208 0
-64 -204 0
-58 -205 0
-66 -208 0
-62 -206 0
-65 -205 0
-62 -201 0
-63 -202 0
-64 -209 0
-58 -199 0
-61 -263 0
-65 -258 0
-56 -263 0
-56 -258 0
-61 -256 0
-57 -261 0
-64 -260 0
-63 -260 0
-65 -256 0
-61 -258 0
-58 -264 0
-57 -259 0
-56 -269 0
-59 -266 0
-63 -274 0
-58 -274 0
-63 -265 0
-61 -274 0
-56 -275 0
-59 -265 0
-61 -269 0
-61 -271 0
-65 -265 0
-64 -270 0
-75 -99 0
-73 -92 0
-69 -98 0
-67 -96 0
-77 -94 0
-69 -89 0
-71 -95 0
-69 -97 0
-69 -99 0
-73 -99 0
-67 -95 0
-68 -93 0
-69 -111 0
-69 -120 0
-71 -115 0
-76 -120 0
-72 -112 0
-70 -119 0
-75 -118 0
-73 -117 0
-68 -121 0
-69 -121 0
-69 -119 0
-73 -121 0
-67 -125 0
-68 -123 0
-67 -123 0
-71 -129 0
-75 -132 0
-75 -122 0
-76 -126 0
-67 -129 0
-74 -122 0
-72 -125 0
-69 -132 0
-73 -124 0
-72 -161 0
-71 -163 0
-70 -157 0
-77 -156 0
-76 -160 0
-68 -165 0
-68 -159 0
-68 -164 0
-74 -161 0
-70 -164 0
-75 -164 0
-77 -164 0
-74 -183 0
-67 -185 0
-77 -182 0
-73 -178 0
-70 -181 0
-70 -184 0
-73 -183 0
-67 -184 0
-74 -180 0
-76 -185 0
-71 -180 0
-77 -180 0
-75 -247 0
-70 -249 0
-76 -251 0
-73 -247 0
-75 -245 0
-70 -246 0
-73 -250 0
-70 -245 0
-70 -243 0
-72 -252 0
-70 -247 0
-68 -248 0
-87 -132 0
-85 -128 0
-79 -125 0
-87 -124 0
-87 -129 0
-86 -126 0
-80 -131 0
-87 -127 0
-88 -130 0
-87 -123 0
-87 -125 0
-80 -128 0
-81 -168 0
-86 -175 0
-80 -175 0
-78 -176 0
-81 -174 0
-81 -173 0
-87 -167 0
-78 -175 0
-86 -174 0
-82 -174 0
-85 -169 0
-78 -169 0
-87 -177 0
-79 -185 0
-85 -179 0
-84 -184 0
-83 -179 0
-78 -180 0
-82 -181 0
-80 -187 0
-86 -181 0
-80 -179 0
-88 -186 0
-82 -187 0
-82 -226 0
-79 -226 0
-84 -223 0
-83 -224 0
-87 -229 0
-81 -225 0
-87 -226 0
-85 -231 0
-80 -223 0
-87 -221 0
-78 -229 0
-81 -226 0
-87 -238 0
-88 -236 0
-79 -236 0
-82 -233 0
-86 -237 0
-83 -236 0
-84 -241 0
-81 -240 0
-78 -233 0
-81 -235 0
-84 -234 0
-86 -232 0
-78 -259 0
-79 -262 0
-83 -254 0
-86 -262 0
-84 -263 0
-84 -262 0
-84 -264 0
-79 -257 0
-82 -254 0
-87 -255 0
-88 -260 0
-82 -256 0
-86 -292 0
-88 -289 0
-79 -295 0
-88 -288 0
-84 -292 0
-82 -296 0
-88 -297 0
-78 -296 0
-86 -288 0
-88 -291 0
-84 -294 0
-81 -287 0
-83 -311 0
-85 -311 0
-88 -312 0
-78 -315 0
-79 -309 0
-82 -311 0
-86 -316 0
-84 -314 0
-79 -316 0
-88 -310 0
-86 -319 0
-88 -311 0
-86 -322 0
-88 -321 0
-84 -323 0
-78 -322 0
-84 -326 0
-82 -320 0
-81 -330 0
-81 -322 0
-80 -325 0
-81 -329 0
-78 -327 0
-86 -324 0
-92 -130 0
-99 -130 0
-90 -123 0
-95 -123 0
-99 -125 0
-93 -123 0
-90 -131 0
-94 -132 0
-97 -128 0
-98 -130 0
-96 -122 0
-95 -129 0
-91 -165 0
-94 -155 0
-90 -163 0
-93 -164 0
-96 -156 0
-92 -162 0
-97 -159 0
-97 -156 0
-98 -156 0
-89 -157 0
-94 -162 0
-91 -162 0
-99 -175 0
-94 -168 0
-96 -174 0
-98 -176 0
-89 -169 0
-95 -175 0
-92 -170 0
-90 -167 0
-95 -171 0
-89 -167 0
-93 -175 0
-92 -176 0
-89 -202 0
-91 -207 0
-99 -206 0
-96 -203 0
-95 -205 0
-92 -208 0
-95 -206 0
-93 -206 0
-98 -201 0
-98 -204 0
-92 -206 0
-98 -209 0
-98 -241 0
-91 -236 0
-99 -234 0
-90 -235 0
-97 -242 0
-90 -233 0
-91 -242 0
-92 -236 0
-93 -238 0
-89 -239 0
-90 -232 0
-98 -238 0
-90 -246 0
-90 -247 0
-96 -246 0
-98 -251 0
-92 -250 0
-96 -244 0
-89 -245 0
-91 -243 0
-99 -250 0
-94 -246 0
-95 -247 0
-96 -253 0
-99 -262 0
-98 -254 0
-91 -263 0
-93 -256 0
-91 -261 0
-91 -256 0
-91 -258 0
-97 -254 0
-97 -256 0
-90 -256 0
-89 -255 0
-97 -264 0
-94 -282 0
-90 -280 0
-90 -278 0
-96 -280 0
-90 -277 0
-98 -282 0
-90 -282 0
-94 -277 0
-97 -278 0
-92 -283 0
-96 -285 0
-89 -282 0
-99 -309 0
-95 -312 0
-89 -316 0
-91 -318 0
-95 -310 0
-90 -310 0
-89 -315 0
-90 -314 0
-96 -312 0
-97 -310 0
-90 -318 0
-91 -311 0
-104 -129 0
-109 -124 0
-100 -123 0
-101 -125 0
-110 -132 0
-108 -122 0
-103 -123 0
-101 -123 0
-102 -131 0
-104 -128 0
-106 -130 0
-106 -123 0
-110 -138 0
-107 -138 0
-101 -141 0
-106 -141 0
-109 -142 0
-110 -136 0
-102 -138 0
-101 -135 0
-105 -141 0
-105 -133 0
-105 -140 0
-102 -140 0
-101 -197 0
-100 -196 0
-106 -190 0
-106 -194 0
-100 -189 0
-100 -197 0
-108 -195 0
-103 -188 0
-107 -194 0
-104 -197 0
-101 -191 0
-109 -194 0
-100 -227 0
-106 -223 0
-101 -227 0
-104 -221 0
-105 -226 0
-108 -225 0
-107 -228 0
-106 -226 0
-101 -223 0
-110 -225 0
-104 -224 0
-107 -226 0
-109 -236 0
-103 -242 0
-107 -238 0
-104 -232 0
-107 -241 0
-108 -234 0
-107 -237 0
-105 -240 0
-110 -234 0
-105 -234 0
-106 -232 0
-104 -233 0
-105 -244 0
-104 -245 0
-107 -252 0
-104 -253 0
-103 -244 0
-105 -251 0
-108 -244 0
-103 -253 0
-109 -247 0
-101 -245 0
-108 -247 0
-105 -248 0
-107 -309 0
-101 -311 0
-104 -312 0
-107 -319 0
-102 -311 0
-102 -309 0
-110 -309 0
-104 -310 0
-103 -317 0
-109 -311 0
-108 -311 0
-109 -312 0
-118 -148 0
-114 -146 0
-118 -150 0
-119 -148 0
-116 -144 0
-118 -152 0
-116 -154 0
-114 -145 0
-113 -147 0
-116 -148 0
-112 -145 0
-112 -148 0
-111 -194 0
-111 -190 0
-121 -189 0
-114 -190 0
-117 -198 0
-120 -196 0
-116 -190 0
-111 -189 0
-120 -191 0
-118 -197 0
-113 -191 0
-114 -192 0
-117 -211 0
-114 -220 0
-112 -212 0
-117 -218 0
-116 -218 0
-112 -217 0
-111 -218 0
-112 -215 0
-114 -210 0
-118 -211 0
-121 -214 0
-111 -219 0
-113 -232 0
-117 -241 0
-113 -233 0
-111 -235 0
-111 -233 0
-111 -237 0
-116 -242 0
-116 -232 0
-119 -236 0
-112 -240 0
-118 -232 0
-118 -238 0
-111 -306 0
-119 -302 0
-120 -303 0
-119 -303 0
-118 -303 0
-112 -300 0
-113 -305 0
-120 -307 0
-117 -305 0
-116 -308 0
-115 -302 0
-120 -306 0
-118 -323 0
-113 -326 0
-114 -330 0
-117 -327 0
-116 -326 0
-111 -326 0
-120 -322 0
-121 -324 0
-120 -326 0
-115 -322 0
-113 -322 0
-116 -321 0
-125 -138 0
-124 -139 0
-132 -135 0
-129 -143 0
-124 -142 0
-130 -136 0
-125 -140 0
-124 -134 0
-129 -137 0
-124 -141 0
-128 -138 0
-129 -139 0
-132 -257 0
-131 -262 0
-130 -254 0
-131 -257 0
-125 -262 0
-122 -258 0
-122 -260 0
-122 -254 0
-126 -257 0
-130 -262 0
-128 -256 0
-123 -255 0
-131 -300 0
-129 -298 0
-122 -302 0
-126 -301 0
-123 -298 0
-132 -298 0
-125 -301 0
-128 -307 0
-128 -308 0
-125 -306 0
-131 -307 0
-126 -299 0
-132 -327 0
-122 -327 0
-128 -323 0
-132 -325 0
-122 -323 0
-130 -329 0
-127 -329 0
-129 -328 0
-131 -326 0
-126 -321 0
-127 -326 0
-128 -324 0
-138 -180 0
-136 -177 0
-138 -177 0
-142 -187 0
-136 -185 0
-141 -183 0
-135 -183 0
-136 -179 0
-139 -178 0
-141 -185 0
-140 -186 0
-133 -185 0
-133 -190 0
-135 -197 0
-134 -189 0
-140 -194 0
-133 -197 0
-136 -193 0
-143 -196 0
-143 -191 0
-143 -198 0
-141 -195 0
-133 -188 0
-138 -197 0
-142 -252 0
-136 -253 0
-135 -246 0
-134 -244 0
-143 -251 0
-137 -247 0
-142 -244 0
-139 -244 0
-141 -249 0
-140 -252 0
-140 -247 0
-135 -253 0
-133 -279 0
-136 -286 0
-134 -280 0
-139 -285 0
-136 -277 0
-142 -280 0
-139 -283 0
-139 -284 0
-143 -285 0
-140 -286 0
-139 -282 0
-138 -276 0
-133 -316 0
-143 -319 0
-138 -318 0
-137 -318 0
-137 -311 0
-138 -312 0
-138 -319 0
-133 -315 0
-136 -317 0
-142 -318 0
-143 -313 0
-141 -310 0
-136 -320 0
-141 -321 0
-143 -330 0
-136 -325 0
-139 -322 0
-134 -321 0
-138 -325 0
-142 -320 0
-138 -328 0
-142 -327 0
-138 -322 0
-137 -326 0
-146 -164 0
-153 -155 0
-151 -155 0
-152 -159 0
-147 -157 0
-153 -157 0
-153 -159 0
-154 -165 0
-144 -158 0
-151 -158 0
-146 -157 0
-144 -165 0
-145 -215 0
-152 -211 0
-154 -216 0
-152 -217 0
-149 -214 0
-153 -216 0
-154 -215 0
-144 -213 0
-154 -220 0
-147 -218 0
-149 -211 0
-146 -218 0
-152 -256 0
-145 -254 0
-149 -255 0
-152 -258 0
-152 -259 0
-144 -254 0
-146 -263 0
-151 -262 0
-144 -263 0
-150 -254 0
-151 -257 0
-145 -259 0
-145 -281 0
-151 -284 0
-149 -285 0
-151 -286 0
-144 -286 0
-152 -280 0
-151 -281 0
-152 -283 0
-154 -278 0
-152 -278 0
-144 -283 0
-149 -282 0
-145 -307 0
-154 -298 0
-144 -301 0
-147 -303 0
-144 -305 0
-151 -307 0
-152 -300 0
-144 -303 0
-151 -303 0
-148 -306 0
-154 -308 0
-144 -298 0
-152 -315 0
-146 -310 0
-147 -319 0
-144 -310 0
-144 -311 0
-144 -317 0
-149 -314 0
-144 -319 0
-154 -310 0
-146 -309 0
-148 -318 0
-148 -313 0
-163 -166 0
-156 -174 0
-158 -168 0
-163 -172 0
-157 -171 0
-156 -172 0
-164 -174 0
-156 -171 0
-155 -166 0
-158 -173 0
-157 -166 0
-164 -167 0
-164 -194 0
-163 -198 0
-158 -192 0
-156 -194 0
-164 -193 0
-158 -196 0
-165 -198 0
-158 -189 0
-157 -198 0
-160 -190 0
-163 -188 0
-162 -195 0
-161 -227 0
-163 -221 0
-157 -228 0
-155 -221 0
-164 -222 0
-164 -223 0
-161 -225 0
-160 -229 0
-162 -225 0
-160 -222 0
-155 -228 0
-158 -222 0
-162 -233 0
-164 -234 0
-155 -235 0
-158 -240 0
-162 -235 0
-164 -232 0
-159 -238 0
-156 -238 0
-157 -240 0
-159 -234 0
-158 -238 0
-164 -235 0
-155 -261 0
-162 -255 0
-164 -264 0
-165 -261 0
-161 -261 0
-158 -263 0
-160 -262 0
-158 -256 0
-158 -255 0
-157 -255 0
-161 -259 0
-163 -261 0
-155 -282 0
-162 -280 0
-161 -282 0
-156 -286 0
-156 -278 0
-157 -286 0
-162 -284 0
-156 -277 0
-163 -279 0
-155 -278 0
-165 -286 0
-156 -283 0
-165 -308 0
-158 -303 0
-162 -300 0
-159 -302 0
-157 -301 0
-165 -306 0
-160 -300 0
-157 -304 0
-158 -304 0
-165 -299 0
-156 -298 0
-165 -301 0
-173 -209 0
-176 -201 0
-166 -199 0
-174 -199 0
-172 -201 0
-169 -203 0
-176 -207 0
-169 -201 0
-174 -202 0
-169 -208 0
-171 -209 0
-168 -202 0
-166 -224 0
-168 -224 0
-168 -222 0
-176 -225 0
-173 -221 0
-168 -228 0
-175 -227 0
-172 -223 0
-175 -224 0
-166 -227 0
-174 -221 0
-175 -223 0
-174 -276 0
-174 -278 0
-172 -277 0
-170 -285 0
-171 -282 0
-166 -278 0
-174 -284 0
-173 -280 0
-168 -284 0
-169 -285 0
-173 -276 0
-176 -277 0
-173 -294 0
-174 -288 0
-176 -296 0
-169 -296 0
-170 -288 0
-173 -288 0
-171 -289 0
-168 -294 0
-170 -290 0
-168 -290 0
-168 -287 0
-172 -289 0
-185 -190 0
-183 -191 0
-187 -191 0
-180 -188 0
-178 -188 0
-186 -197 0
-183 -189 0
-184 -189 0
-183 -193 0
-184 -196 0
-184 -192 0
-177 -194 0
-177 -230 0
-178 -225 0
-181 -223 0
-183 -226 0
-181 -221 0
-180 -231 0
-179 -228 0
-181 -222 0
-179 -229 0
-184 -226 0
-187 -227 0
-185 -225 0
-184 -242 0
-182 -241 0
-177 -238 0
-187 -242 0
-184 -235 0
-182 -232 0
-181 -233 0
-183 -234 0
-180 -235 0
-179 -233 0
-185 -238 0
-186 -241 0
-186 -248 0
-185 -249 0
-184 -244 0
-181 -245 0
-187 -244 0
-182 -246 0
-179 -251 0
-184 -246 0
-182 -248 0
-180 -244 0
-183 -253 0
-179 -247 0
-180 -264 0
-183 -262 0
-181 -261 0
-187 -258 0
-178 -258 0
-179 -258 0
-186 -264 0
-185 -255 0
-181 -254 0
-181 -255 0
-178 -254 0
-185 -254 0
-186 -329 0
-187 -324 0
-177 -324 0
-182 -328 0
-181 -327 0
-183 -329 0
-178 -330 0
-178 -320 0
-184 -325 0
-178 -321 0
-178 -322 0
-185 -329 0
-194 -215 0
-194 -211 0
-195 -211 0
-191 -213 0
-192 -214 0
-188 -217 0
-193 -218 0
-194 -216 0
-192 -213 0
-191 -219 0
-197 -215 0
-194 -213 0
-189 -231 0
-188 -230 0
-193 -226 0
-198 -230 0
-198 -226 0
-189 -225 0
-188 -226 0
-192 -224 0
-192 -223 0
-195 -230 0
-192 -229 0
-194 -225 0
-196 -260 0
-190 -262 0
-195 -264 0
-196 -254 0
-194 -257 0
-190 -260 0
-188 -258 0
-188 -261 0
-193 -259 0
-190 -263 0
-196 -262 0
-193 -263 0
-192 -282 0
-197 -276 0
-189 -283 0
-194 -285 0
-197 -284 0
-190 -280 0
-190 -278 0
-193 -277 0
-189 -277 0
-192 -281 0
-193 -284 0
-196 -284 0
-191 -328 0
-195 -328 0
-192 -324 0
-190 -329 0
-191 -321 0
-196 -320 0
-193 -329 0
-197 -323 0
-195 -321 0
-196 -328 0
-196 -325 0
-189 -323 0
-209 -239 0
-200 -242 0
-208 -239 0
-209 -241 0
-203 -237 0
-205 -238 0
-204 -236 0
-199 -242 0
-205 -235 0
-201 -242 0
-202 -233 0
-204 -237 0
-199 -279 0
-203 -278 0
-205 -282 0
-209 -285 0
-203 -286 0
-203 -277 0
-205 -280 0
-205 -278 0
-199 -280 0
-200 -276 0
-208 -277 0
-209 -279 0
-205 -301 0
-204 -307 0
-206 -308 0
-201 -306 0
-202 -306 0
-205 -298 0
-202 -301 0
-204 -303 0
-206 -304 0
-201 -300 0
-203 -303 0
-206 -299 0
-203 -310 0
-207 -313 0
-205 -315 0
-204 -319 0
-202 -310 0
-208 -309 0
-205 -317 0
-203 -314 0
-202 -317 0
-201 -318 0
-200 -318 0
-209 -313 0
-200 -329 0
-208 -328 0
-208 -320 0
-208 -323 0
-200 -320 0
-199 -321 0
-204 -330 0
-204 -328 0
-202 -324 0
-207 -325 0
-199 -328 0
-200 -323 0
-210 -309 0
-211 -309 0
-211 -315 0
-218 -312 0
-214 -314 0
-212 -319 0
-213 -316 0
-216 -313 0
-212 -312 0
-219 -316 0
-215 -316 0
-220 -318 0
-224 -244 0
-227 -248 0
-223 -252 0
-230 -247 0
-225 -245 0
-221 -247 0
-230 -251 0
-221 -249 0
-223 -250 0
-229 -250 0
-229 -243 0
-223 -251 0
-230 -265 0
-221 -265 0
-224 -269 0
-231 -273 0
-226 -266 0
-227 -270 0
-229 -273 0
-225 -271 0
-221 -268 0
-224 -270 0
-225 -267 0
-224 -266 0
-224 -276 0
-225 -281 0
-227 -279 0
-227 -277 0
-223 -276 0
-226 -283 0
-224 -278 0
-231 -285 0
-226 -284 0
-227 -280 0
-230 -283 0
-226 -286 0
-224 -306 0
-221 -300 0
-227 -303 0
-224 -301 0
-222 -308 0
-221 -302 0
-230 -306 0
-227 -300 0
-223 -303 0
-231 -305 0
-227 -304 0
-221 -305 0
-222 -327 0
-230 -322 0
-222 -320 0
-227 -320 0
-230 -327 0
-224 -326 0
-221 -326 0
-231 -323 0
-225 -328 0
-223 -321 0
-223 -325 0
-227 -328 0
-235 -261 0
-240 -262 0
-239 -254 0
-239 -258 0
-234 -259 0
-240 -257 0
-233 -264 0
-241 -264 0
-239 -255 0
-239 -257 0
-242 -259 0
-235 -260 0
-250 -255 0
-248 -254 0
-252 -260 0
-247 -255 0
-248 -255 0
-245 -264 0
-246 -262 0
-252 -263 0
-243 -264 0
-250 -257 0
-245 -256 0
-245 -257 0
-247 -284 0
-251 -282 0
-249 -280 0
-244 -279 0
-253 -281 0
-249 -284 0
-247 -281 0
-247 -286 0
-252 -278 0
-253 -283 0
-248 -282 0
-243 -278 0
-248 -294 0
-251 -297 0
-247 -291 0
-243 -290 0
-251 -290 0
-248 -288 0
-244 -295 0
-243 -292 0
-251 -296 0
-249 -289 0
-250 -289 0
-252 -296 0
-264 -308 0
-258 -305 0
-255 -308 0
-260 -299 0
-260 -300 0
-254 -302 0
-263 -299 0
-254 -303 0
-261 -305 0
-262 -307 0
-258 -304 0
-258 -301 0
-263 -313 0
-260 -318 0
-255 -319 0
-260 -312 0
-258 -316 0
-258 -319 0
-254 -318 0
-263 -310 0
-264 -313 0
-254 -314 0
-262 -315 0
-262 -316 0
-267 -305 0
-275 -306 0
-271 -298 0
-270 -303 0
-267 -301 0
-265 -303 0
-275 -302 0
-274 -301 0
-268 -308 0
-266 -298 0
-271 -299 0
-271 -302 0
-266 -312 0
-269 -311 0
-273 -312 0
-265 -309 0
-274 -309 0
-270 -310 0
-274 -312 0
-269 -315 0
-275 -310 0
-273 -309 0
-267 -310 0
-266 -314 0
-278 -312 0
-283 -315 0
-282 -314 0
-286 -317 0
-276 -316 0
-282 -310 0
-282 -309 0
-282 -312 0
-278 -311 0
-284 -319 0
-286 -318 0
-284 -314 0
